NPROCS=0
This instance is clustered!
Gurobi Optimizer version 9.0.0 build v9.0.0rc2 (linux64)
Optimize a model with 34 rows, 290 columns and 578 nonzeros
Model fingerprint: 0x4f8fa124
Variable types: 1 continuous, 289 integer (289 binary)
Coefficient statistics:
  Matrix range     [1e+00, 1e+00]
  Objective range  [1e+00, 2e+02]
  Bounds range     [1e+00, 1e+00]
  RHS range        [1e+00, 1e+00]
Presolve removed 2 rows and 48 columns
Presolve time: 0.00s
Presolved: 32 rows, 242 columns, 482 nonzeros
Variable types: 1 continuous, 241 integer (241 binary)

Root relaxation: objective 3.170175e+02, 26 iterations, 0.00 seconds

    Nodes    |    Current Node    |     Objective Bounds      |     Work
 Expl Unexpl |  Obj  Depth IntInf | Incumbent    BestBd   Gap | It/Node Time

     0     0  425.19785    0    8          -  425.19785      -     -    0s
 done with super cut 0
 done with super cut 1
 done with super cut 2
 done with super cut 3
H    0     0                     637.4781022  425.19785  33.3%     -    0s
     0     0  427.49036    0   22  637.47810  427.49036  32.9%     -    0s
     0     0  454.78292    0   33  637.47810  454.78292  28.7%     -    0s
 done with super cut 4
     0     0  457.98643    0   30  637.47810  457.98643  28.2%     -    0s
 done with super cut 5
     0     2  457.98643    0   30  637.47810  457.98643  28.2%     -    0s
 done with super cut 6
 done with super cut 7
 done with super cut 8
 done with super cut 9
 done with super cut 10
 24145  5072  632.51305   40    9  637.47810  588.53643  7.68%   5.9    5s

Cutting planes:
  Lazy constraints: 434

Explored 41174 nodes (270849 simplex iterations) in 7.91 seconds
Thread count was 12 (of 12 available processors)

Solution count 1: 637.478 

Optimal solution found (tolerance 1.00e-04)
Best objective 6.374781022213e+02, best bound 6.374781022213e+02, gap 0.0000%

User-callback calls 85155, time in user-callback 1.31 sec
/projects/academic/josewalt/caigao/RRARP_BD/BendersDecomp/ret/model_outs/n_15_h_10_algo_4.out
 =====>>>>> Solution is written to file in <../ret/model_outs> !!!
===>> All Done!
